NAME : graph16
COMMENT : H Algorithm Solution by Oscar Riveros [http://twitter.com/maxtuno]
TYPE : TOUR
DIMENSION : 156
TOUR_SECTION
136
42
67
133
34
96
56
113
143
73
40
74
46
135
1
35
75
8
20
7
156
94
85
107
59
14
139
141
53
4
108
26
124
92
99
32
117
83
30
81
61
66
114
77
31
62
132
51
39
103
148
41
131
43
89
112
120
23
10
69
129
37
27
82
150
95
78
98
49
12
44
45
3
88
109
6
91
145
100
21
80
121
65
47
19
147
153
22
54
15
72
115
152
87
144
24
58
105
11
33
29
155
86
25
55
116
84
127
104
142
97
101
125
119
126
70
110
154
138
149
38
36
118
2
16
151
93
106
134
5
140
28
71
52
68
64
137
9
76
17
79
102
18
122
48
63
90
130
128
123
57
50
13
60
111
146
-1
EOF
